%%% static parameters %%%
timespan = 1;
Clients_N = [4000];
Demand_W = [15];
Lt0 = [4];
Lt1 = [4];
SS_ = [0.85];
DS_D = [20];
K = [200];
MA = [500];
HC = [0.05];
%%% dynamic parameters %%%
lost_ratio_sales_ret_th = 4.541298117333148e-05;
lost_ratio_sales_ret_w = 51;
lost_ratio_sales_dis_th = 0.00031267586031252207;
lost_ratio_sales_dis_w = 80;
lost_ratio_sales_fac_th = 0.0008084978587108499;
lost_ratio_sales_fac_w = 72;
stock_customer_MA_mean_relative_th = 0.5950977987212606;
stock_customer_MA_mean_relative_w = 64;
stock_distributor_MA_mean_relative_th = 0.06629429226231576;
stock_distributor_MA_mean_relative_w = 97;
stock_retailer_MA_mean_relative_th = 0.5562025196641314;
stock_retailer_MA_mean_relative_w = 69;
stock_factory_MA_mean_relative_th = 0.12737296071133852;
stock_factory_MA_mean_relative_w = 25;
